c preprocessed version of pr299.tsp, 207 vertices, 599 edges
p td 207 599
0 1
0 104
0 103
0 102
202 0
201 0
1 2
1 104
1 105
202 1
3 2
105 2
2 98
2 99
202 2
3 4
3 98
3 182
3 181
202 3
203 3
5 4
4 182
4 183
203 4
6 5
5 183
203 5
7 6
9 6
92 6
91 6
6 95
6 96
6 183
203 6
7 8
7 9
201 7
203 7
9 8
10 8
11 8
12 8
13 8
14 8
22 8
23 8
8 24
201 8
9 10
9 94
9 92
10 11
10 94
11 12
11 16
11 94
12 13
12 16
12 15
13 14
13 15
15 14
14 22
14 21
16 15
15 21
15 17
15 20
16 17
16 18
16 94
17 18
17 20
17 19
19 18
94 18
92 18
18 93
19 20
19 93
19 85
21 20
83 20
20 85
20 84
22 21
21 23
21 82
21 83
22 23
23 24
23 25
23 191
23 190
23 82
25 24
198 24
25 26
25 191
198 25
199 25
27 26
200 26
191 26
26 192
199 26
27 28
27 200
27 192
81 27
29 28
31 28
28 68
200 28
79 28
81 28
30 29
29 31
29 200
199 29
197 29
30 31
30 32
197 30
32 31
31 33
31 68
32 33
196 32
34 33
33 68
196 33
35 34
67 34
34 68
196 34
36 35
66 35
35 67
196 35
36 37
36 51
36 66
196 36
37 38
37 51
37 50
196 37
38 39
38 50
196 38
39 40
50 39
39 49
196 39
40 41
40 47
40 49
40 48
196 40
41 42
41 46
41 47
196 41
42 43
42 46
42 195
196 42
43 44
43 195
196 43
45 44
195 44
59 44
196 44
45 46
45 195
45 59
45 58
45 57
45 194
47 46
46 195
46 194
47 48
47 194
48 49
194 48
48 54
48 55
50 49
49 52
49 54
49 53
50 51
50 52
51 52
51 66
51 65
53 52
52 65
53 54
53 65
53 64
54 55
54 64
56 55
194 55
64 55
55 63
57 56
60 56
194 56
56 63
56 62
56 61
58 57
60 57
194 57
59 58
58 60
59 60
59 61
60 61
62 61
170 61
63 62
168 62
62 171
62 167
62 170
62 169
64 63
165 63
163 63
63 171
63 166
65 64
64 158
64 157
64 163
66 65
65 67
65 158
66 67
67 68
67 69
67 158
67 159
68 69
79 68
80 68
69 70
69 71
69 159
78 69
80 69
71 70
70 77
70 75
70 193
70 73
70 72
78 70
71 72
71 159
73 72
72 161
72 159
74 73
193 73
73 161
73 160
73 114
75 74
88 74
74 193
74 116
74 114
74 115
76 75
77 75
75 88
75 193
77 76
76 88
79 76
78 76
81 76
184 76
78 77
79 78
78 80
79 80
81 79
81 82
81 190
81 192
189 81
81 184
83 82
190 82
189 82
83 84
83 185
189 83
85 84
84 185
84 188
85 86
93 85
85 188
85 186
85 187
87 86
93 86
92 86
187 86
86 91
86 90
88 87
187 87
186 87
87 90
87 89
184 87
88 89
88 116
184 88
90 89
149 89
89 116
89 117
91 90
95 90
90 149
90 118
90 130
90 131
92 91
91 95
92 93
94 92
96 95
95 131
96 97
183 96
96 131
96 132
96 109
96 135
98 97
181 97
182 97
183 97
97 109
99 98
98 181
98 107
100 99
105 99
99 106
99 107
100 101
103 100
105 100
102 100
100 106
102 101
106 101
108 101
103 102
104 103
105 103
104 105
106 107
108 109
108 110
110 109
135 109
111 110
143 110
110 142
110 141
110 134
110 135
136 110
137 110
112 111
155 111
154 111
177 111
178 111
111 141
111 180
113 112
112 144
112 175
112 179
112 141
112 180
114 113
150 113
146 113
113 144
113 175
114 115
150 114
160 114
114 146
116 115
122 115
123 115
138 115
146 115
139 115
145 115
116 117
122 116
116 121
118 117
149 117
121 117
148 117
118 119
118 130
149 118
120 118
118 148
118 129
120 119
119 125
119 129
119 147
126 119
121 120
120 148
120 125
122 121
123 121
121 148
121 125
121 124
123 122
123 124
123 138
124 125
124 138
126 124
137 124
126 125
126 127
126 147
126 136
126 137
127 128
127 132
127 147
127 133
136 127
128 129
130 128
131 128
132 128
128 147
130 129
147 129
130 131
131 132
132 133
132 134
132 135
133 134
136 133
134 135
136 134
136 137
137 138
137 140
137 143
138 139
140 138
140 139
139 145
139 144
140 141
140 144
140 143
140 142
141 142
144 141
143 142
145 144
146 144
146 145
151 150
150 160
150 175
152 151
151 160
151 175
151 174
151 173
152 153
159 152
162 152
152 160
152 172
152 173
153 154
162 153
153 157
172 153
153 156
155 154
172 154
154 177
156 154
156 155
164 155
165 155
167 155
168 155
169 155
170 155
157 156
156 164
158 157
162 157
157 163
157 164
158 159
158 162
159 160
161 159
159 162
161 160
163 164
165 163
165 164
165 166
165 167
166 167
166 171
168 167
167 171
168 169
170 169
172 173
172 177
174 173
173 177
173 176
174 175
174 176
175 176
175 179
177 176
178 176
179 176
177 178
178 179
178 180
179 180
181 182
182 183
184 185
184 186
189 184
186 185
188 185
189 185
186 187
188 186
191 190
190 192
191 192
197 198
199 197
198 199
199 200
202 201
201 203
202 203
204 97
204 205
204 109
204 108
204 206
205 206
205 97
205 98
205 107
206 101
206 106
206 107
206 108
